\ENCODING=ISO-8859-1
\Problem name: dbg

Maximize
 objMaxJ25: R25
Subject To
 A:     R01 - R03 - R02 - R26  = 0
 B:     R02 - R05 + R04  = 0
 C:     R03 - R04  = 0
 D:     R05 - R06 - R09  = 0
 F1:    - R10 + R09  = 0
 F2:    R10 - R11  = 0
 G:     - R12 + R08 + R11  = 0
 H:     - R16 + R12 - R13  = 0
 I1:    - R14 + R13 - R19  = 0
 I2:    R14 - R15 + R21  = 0
 J1:    R16 - R17  = 0
 J2:    R17 - R18  = 0
 K1:    R19 - R20  = 0
 K2:    - R21 + R20  = 0
 L:     R15 + R18 - R22  = 0
 M:     - R24 - R23 + R22  = 0
 N:     0.5 R26 - R25 + R24 + R23  = 0
 mE1:   - R07 + R06  = 0
 mE2:   R07 - R08  = 0
 cons1: R16 + R15  = 0.8
 cons2: R15 >= 0.1
 cons3: R14 >= 0.1
 cons4: R15 <= 1
Bounds
 0 <= R01 <= 1
 0 <= R10 <= 1000
-1000 <= R03 <= 1000
-1000 <= R02 <= 1000
 0 <= R05 <= 1000
-1000 <= R04 <= 1000
 0 <= R16 <= 1000
 0 <= R17 <= 1000
-1000 <= R14 <= 1000
 0 <= R15 <= 1000
 0 <= R12 <= 1000
 0 <= R13 <= 1000
 0 <= R07 <= 1000
 0 <= R06 <= 1000
 0 <= R09 <= 1000
 0 <= R08 <= 1000
 0 <= R11 <= 1000
 0 <= R18 <= 1000
-1000 <= R19 <= 1000
 0 <= R26 <= 1000
 0 <= R25 <= 1000
 0 <= R24 <= 1000
-1000 <= R23 <= 1000
 0 <= R22 <= 1000
-1000 <= R21 <= 1000
-1000 <= R20 <= 1000
End
